p edge 73 1564
e 1 4
e 1 5
e 1 6
e 1 10
e 1 11
e 1 12
e 1 13
e 1 15
e 1 16
e 1 18
e 1 19
e 1 21
e 1 22
e 1 23
e 1 24
e 1 25
e 1 26
e 1 27
e 1 28
e 1 29
e 1 30
e 1 31
e 1 33
e 1 35
e 1 37
e 1 38
e 1 40
e 1 42
e 1 43
e 1 45
e 1 48
e 1 49
e 1 50
e 1 51
e 1 52
e 1 53
e 1 54
e 1 55
e 1 58
e 1 60
e 1 68
e 1 69
e 1 70
e 1 71
e 1 73
e 2 4
e 2 7
e 2 8
e 2 9
e 2 10
e 2 12
e 2 13
e 2 15
e 2 16
e 2 17
e 2 18
e 2 19
e 2 20
e 2 22
e 2 26
e 2 27
e 2 28
e 2 30
e 2 31
e 2 32
e 2 34
e 2 35
e 2 39
e 2 41
e 2 42
e 2 43
e 2 44
e 2 45
e 2 47
e 2 49
e 2 51
e 2 52
e 2 53
e 2 56
e 2 58
e 2 60
e 2 61
e 2 63
e 2 66
e 2 68
e 2 69
e 2 71
e 2 72
e 3 4
e 3 10
e 3 11
e 3 20
e 3 21
e 3 22
e 3 23
e 3 24
e 3 25
e 3 28
e 3 30
e 3 31
e 3 32
e 3 33
e 3 34
e 3 35
e 3 38
e 3 39
e 3 40
e 3 42
e 3 45
e 3 46
e 3 47
e 3 48
e 3 49
e 3 51
e 3 53
e 3 54
e 3 55
e 3 57
e 3 59
e 3 61
e 3 62
e 3 64
e 3 66
e 3 69
e 3 72
e 4 6
e 4 7
e 4 8
e 4 9
e 4 10
e 4 14
e 4 15
e 4 16
e 4 17
e 4 18
e 4 19
e 4 23
e 4 24
e 4 25
e 4 28
e 4 29
e 4 30
e 4 31
e 4 33
e 4 34
e 4 35
e 4 36
e 4 38
e 4 42
e 4 43
e 4 45
e 4 47
e 4 48
e 4 51
e 4 52
e 4 53
e 4 55
e 4 57
e 4 58
e 4 59
e 4 63
e 4 64
e 4 66
e 4 67
e 4 68
e 4 70
e 4 71
e 4 72
e 4 73
e 5 6
e 5 7
e 5 8
e 5 10
e 5 12
e 5 13
e 5 15
e 5 16
e 5 17
e 5 19
e 5 20
e 5 21
e 5 23
e 5 25
e 5 26
e 5 32
e 5 38
e 5 39
e 5 40
e 5 42
e 5 43
e 5 44
e 5 48
e 5 49
e 5 51
e 5 54
e 5 55
e 5 60
e 5 62
e 5 63
e 5 64
e 5 66
e 5 67
e 5 69
e 5 73
e 6 9
e 6 10
e 6 12
e 6 15
e 6 16
e 6 18
e 6 23
e 6 24
e 6 26
e 6 27
e 6 29
e 6 32
e 6 34
e 6 37
e 6 38
e 6 42
e 6 43
e 6 45
e 6 47
e 6 49
e 6 50
e 6 51
e 6 53
e 6 54
e 6 55
e 6 57
e 6 58
e 6 59
e 6 60
e 6 62
e 6 63
e 6 64
e 6 65
e 6 66
e 6 68
e 6 69
e 6 71
e 6 73
e 7 8
e 7 11
e 7 13
e 7 14
e 7 17
e 7 20
e 7 21
e 7 23
e 7 24
e 7 25
e 7 28
e 7 29
e 7 30
e 7 31
e 7 33
e 7 36
e 7 37
e 7 38
e 7 39
e 7 41
e 7 44
e 7 45
e 7 46
e 7 48
e 7 54
e 7 56
e 7 60
e 7 63
e 7 65
e 7 66
e 7 68
e 7 69
e 7 72
e 8 9
e 8 11
e 8 14
e 8 17
e 8 18
e 8 20
e 8 21
e 8 22
e 8 23
e 8 24
e 8 27
e 8 28
e 8 29
e 8 31
e 8 32
e 8 33
e 8 34
e 8 35
e 8 38
e 8 41
e 8 42
e 8 46
e 8 48
e 8 49
e 8 50
e 8 55
e 8 56
e 8 58
e 8 60
e 8 61
e 8 63
e 8 64
e 8 66
e 8 67
e 8 69
e 8 70
e 8 71
e 8 73
e 9 11
e 9 13
e 9 14
e 9 15
e 9 17
e 9 18
e 9 20
e 9 23
e 9 24
e 9 25
e 9 27
e 9 31
e 9 34
e 9 36
e 9 37
e 9 38
e 9 39
e 9 41
e 9 42
e 9 43
e 9 44
e 9 45
e 9 47
e 9 48
e 9 50
e 9 52
e 9 53
e 9 54
e 9 56
e 9 61
e 9 62
e 9 63
e 9 65
e 9 66
e 9 67
e 9 69
e 9 70
e 9 72
e 9 73
e 10 11
e 10 15
e 10 16
e 10 19
e 10 23
e 10 25
e 10 26
e 10 27
e 10 30
e 10 33
e 10 35
e 10 37
e 10 39
e 10 40
e 10 41
e 10 42
e 10 43
e 10 45
e 10 46
e 10 47
e 10 48
e 10 49
e 10 50
e 10 52
e 10 53
e 10 57
e 10 58
e 10 59
e 10 63
e 10 65
e 10 66
e 10 67
e 10 68
e 10 69
e 10 70
e 10 71
e 10 72
e 10 73
e 11 13
e 11 14
e 11 17
e 11 18
e 11 19
e 11 20
e 11 21
e 11 22
e 11 23
e 11 24
e 11 25
e 11 26
e 11 27
e 11 29
e 11 30
e 11 31
e 11 32
e 11 33
e 11 34
e 11 35
e 11 36
e 11 38
e 11 39
e 11 43
e 11 44
e 11 46
e 11 47
e 11 49
e 11 50
e 11 51
e 11 54
e 11 56
e 11 57
e 11 59
e 11 60
e 11 62
e 11 64
e 11 68
e 11 72
e 12 13
e 12 14
e 12 15
e 12 16
e 12 17
e 12 19
e 12 20
e 12 22
e 12 24
e 12 26
e 12 27
e 12 28
e 12 30
e 12 31
e 12 32
e 12 33
e 12 35
e 12 36
e 12 37
e 12 38
e 12 39
e 12 40
e 12 42
e 12 44
e 12 45
e 12 47
e 12 48
e 12 50
e 12 51
e 12 54
e 12 58
e 12 63
e 12 64
e 12 67
e 12 69
e 12 70
e 12 72
e 13 14
e 13 15
e 13 17
e 13 18
e 13 21
e 13 22
e 13 23
e 13 24
e 13 26
e 13 27
e 13 29
e 13 31
e 13 32
e 13 33
e 13 41
e 13 42
e 13 44
e 13 45
e 13 46
e 13 48
e 13 49
e 13 52
e 13 54
e 13 55
e 13 57
e 13 58
e 13 60
e 13 61
e 13 62
e 13 64
e 13 66
e 13 67
e 13 72
e 14 16
e 14 22
e 14 25
e 14 26
e 14 27
e 14 29
e 14 30
e 14 31
e 14 32
e 14 33
e 14 34
e 14 35
e 14 36
e 14 37
e 14 38
e 14 39
e 14 40
e 14 41
e 14 42
e 14 43
e 14 44
e 14 45
e 14 47
e 14 54
e 14 55
e 14 58
e 14 60
e 14 61
e 14 64
e 14 66
e 14 67
e 14 68
e 14 69
e 14 71
e 14 72
e 15 17
e 15 19
e 15 20
e 15 23
e 15 25
e 15 27
e 15 28
e 15 29
e 15 31
e 15 33
e 15 34
e 15 35
e 15 36
e 15 38
e 15 39
e 15 40
e 15 48
e 15 49
e 15 52
e 15 53
e 15 54
e 15 56
e 15 57
e 15 59
e 15 60
e 15 63
e 15 64
e 15 66
e 15 67
e 15 68
e 15 69
e 15 70
e 15 71
e 15 72
e 15 73
e 16 17
e 16 19
e 16 20
e 16 21
e 16 22
e 16 24
e 16 26
e 16 28
e 16 29
e 16 30
e 16 31
e 16 32
e 16 34
e 16 36
e 16 37
e 16 38
e 16 39
e 16 40
e 16 41
e 16 42
e 16 43
e 16 44
e 16 45
e 16 46
e 16 47
e 16 49
e 16 51
e 16 52
e 16 54
e 16 55
e 16 56
e 16 57
e 16 58
e 16 59
e 16 60
e 16 62
e 16 64
e 16 65
e 16 66
e 16 67
e 16 69
e 16 70
e 16 72
e 17 18
e 17 19
e 17 20
e 17 23
e 17 24
e 17 26
e 17 27
e 17 28
e 17 29
e 17 30
e 17 32
e 17 39
e 17 40
e 17 42
e 17 43
e 17 45
e 17 46
e 17 47
e 17 48
e 17 50
e 17 51
e 17 52
e 17 53
e 17 54
e 17 56
e 17 57
e 17 58
e 17 59
e 17 60
e 17 61
e 17 65
e 17 66
e 17 68
e 17 69
e 17 72
e 18 20
e 18 22
e 18 24
e 18 27
e 18 29
e 18 31
e 18 34
e 18 35
e 18 36
e 18 37
e 18 38
e 18 39
e 18 40
e 18 44
e 18 45
e 18 46
e 18 50
e 18 51
e 18 52
e 18 53
e 18 54
e 18 55
e 18 58
e 18 59
e 18 63
e 18 64
e 18 65
e 18 66
e 18 68
e 18 70
e 18 72
e 19 21
e 19 22
e 19 23
e 19 25
e 19 27
e 19 28
e 19 30
e 19 31
e 19 32
e 19 33
e 19 39
e 19 40
e 19 43
e 19 46
e 19 48
e 19 49
e 19 50
e 19 51
e 19 53
e 19 54
e 19 56
e 19 57
e 19 59
e 19 60
e 19 61
e 19 63
e 19 64
e 19 67
e 19 69
e 19 71
e 19 72
e 20 21
e 20 22
e 20 23
e 20 24
e 20 25
e 20 26
e 20 27
e 20 28
e 20 29
e 20 32
e 20 33
e 20 34
e 20 36
e 20 37
e 20 39
e 20 40
e 20 41
e 20 42
e 20 43
e 20 44
e 20 46
e 20 51
e 20 52
e 20 53
e 20 56
e 20 57
e 20 60
e 20 61
e 20 62
e 20 64
e 20 65
e 20 66
e 20 67
e 20 69
e 20 70
e 20 72
e 20 73
e 21 22
e 21 23
e 21 26
e 21 27
e 21 28
e 21 29
e 21 30
e 21 31
e 21 34
e 21 35
e 21 36
e 21 39
e 21 40
e 21 42
e 21 44
e 21 47
e 21 51
e 21 52
e 21 54
e 21 55
e 21 56
e 21 57
e 21 59
e 21 61
e 21 62
e 21 65
e 21 67
e 21 68
e 21 72
e 21 73
e 22 23
e 22 24
e 22 26
e 22 28
e 22 30
e 22 31
e 22 32
e 22 33
e 22 34
e 22 35
e 22 38
e 22 39
e 22 40
e 22 41
e 22 43
e 22 46
e 22 47
e 22 48
e 22 49
e 22 51
e 22 52
e 22 55
e 22 56
e 22 57
e 22 58
e 22 59
e 22 60
e 22 61
e 22 62
e 22 63
e 22 64
e 22 65
e 22 70
e 22 72
e 22 73
e 23 24
e 23 26
e 23 29
e 23 31
e 23 32
e 23 33
e 23 34
e 23 37
e 23 38
e 23 39
e 23 40
e 23 41
e 23 43
e 23 44
e 23 45
e 23 47
e 23 50
e 23 51
e 23 52
e 23 53
e 23 54
e 23 55
e 23 56
e 23 60
e 23 61
e 23 62
e 23 64
e 23 65
e 23 66
e 23 68
e 23 71
e 24 27
e 24 28
e 24 29
e 24 30
e 24 32
e 24 33
e 24 35
e 24 38
e 24 39
e 24 40
e 24 44
e 24 48
e 24 49
e 24 50
e 24 51
e 24 53
e 24 54
e 24 55
e 24 57
e 24 58
e 24 59
e 24 62
e 24 64
e 24 67
e 24 69
e 24 70
e 24 71
e 24 72
e 25 26
e 25 28
e 25 29
e 25 30
e 25 31
e 25 32
e 25 33
e 25 35
e 25 40
e 25 43
e 25 44
e 25 45
e 25 46
e 25 47
e 25 48
e 25 49
e 25 50
e 25 52
e 25 53
e 25 54
e 25 56
e 25 59
e 25 62
e 25 64
e 25 65
e 25 67
e 25 68
e 25 69
e 25 70
e 25 71
e 25 73
e 26 27
e 26 28
e 26 31
e 26 32
e 26 33
e 26 34
e 26 36
e 26 37
e 26 38
e 26 42
e 26 44
e 26 46
e 26 47
e 26 48
e 26 49
e 26 51
e 26 52
e 26 53
e 26 54
e 26 56
e 26 58
e 26 61
e 26 63
e 26 67
e 26 68
e 26 70
e 26 71
e 26 73
e 27 28
e 27 34
e 27 35
e 27 38
e 27 39
e 27 40
e 27 41
e 27 45
e 27 47
e 27 48
e 27 49
e 27 51
e 27 52
e 27 53
e 27 54
e 27 55
e 27 56
e 27 57
e 27 59
e 27 60
e 27 61
e 27 62
e 27 63
e 27 65
e 27 68
e 27 69
e 27 71
e 28 29
e 28 30
e 28 31
e 28 33
e 28 34
e 28 35
e 28 36
e 28 37
e 28 38
e 28 39
e 28 41
e 28 43
e 28 47
e 28 49
e 28 50
e 28 54
e 28 55
e 28 57
e 28 59
e 28 62
e 28 63
e 28 69
e 28 70
e 28 71
e 28 72
e 29 31
e 29 36
e 29 37
e 29 39
e 29 40
e 29 41
e 29 42
e 29 43
e 29 45
e 29 46
e 29 47
e 29 48
e 29 49
e 29 51
e 29 55
e 29 56
e 29 57
e 29 58
e 29 59
e 29 62
e 29 63
e 29 64
e 29 66
e 29 67
e 29 69
e 29 73
e 30 33
e 30 36
e 30 38
e 30 40
e 30 41
e 30 42
e 30 43
e 30 44
e 30 45
e 30 47
e 30 48
e 30 49
e 30 50
e 30 52
e 30 53
e 30 54
e 30 55
e 30 56
e 30 61
e 30 62
e 30 63
e 30 64
e 30 66
e 30 67
e 30 69
e 30 71
e 30 72
e 30 73
e 31 32
e 31 33
e 31 35
e 31 36
e 31 38
e 31 40
e 31 41
e 31 42
e 31 43
e 31 44
e 31 45
e 31 46
e 31 47
e 31 50
e 31 54
e 31 55
e 31 56
e 31 58
e 31 59
e 31 60
e 31 61
e 31 62
e 31 63
e 31 66
e 31 68
e 31 71
e 31 72
e 32 33
e 32 34
e 32 36
e 32 37
e 32 39
e 32 40
e 32 43
e 32 44
e 32 46
e 32 47
e 32 48
e 32 49
e 32 51
e 32 55
e 32 56
e 32 57
e 32 62
e 32 63
e 32 64
e 32 66
e 32 67
e 32 68
e 32 70
e 32 71
e 32 72
e 33 36
e 33 37
e 33 41
e 33 43
e 33 44
e 33 45
e 33 46
e 33 47
e 33 48
e 33 50
e 33 54
e 33 56
e 33 58
e 33 59
e 33 60
e 33 62
e 33 66
e 33 67
e 33 68
e 33 69
e 33 72
e 34 36
e 34 37
e 34 38
e 34 39
e 34 41
e 34 44
e 34 45
e 34 46
e 34 47
e 34 48
e 34 50
e 34 51
e 34 52
e 34 53
e 34 54
e 34 58
e 34 59
e 34 61
e 34 63
e 34 64
e 34 65
e 34 66
e 34 68
e 35 36
e 35 38
e 35 39
e 35 40
e 35 41
e 35 44
e 35 47
e 35 49
e 35 51
e 35 53
e 35 54
e 35 55
e 35 56
e 35 57
e 35 59
e 35 61
e 35 62
e 35 63
e 35 64
e 35 66
e 35 68
e 35 69
e 35 70
e 35 71
e 35 72
e 35 73
e 36 37
e 36 41
e 36 42
e 36 43
e 36 49
e 36 53
e 36 54
e 36 57
e 36 59
e 36 60
e 36 65
e 36 66
e 36 67
e 36 68
e 36 71
e 36 73
e 37 38
e 37 40
e 37 42
e 37 47
e 37 48
e 37 50
e 37 52
e 37 53
e 37 55
e 37 60
e 37 61
e 37 62
e 37 64
e 37 65
e 37 67
e 37 68
e 37 72
e 38 39
e 38 42
e 38 43
e 38 44
e 38 45
e 38 46
e 38 47
e 38 49
e 38 50
e 38 52
e 38 54
e 38 57
e 38 58
e 38 59
e 38 60
e 38 61
e 38 62
e 38 64
e 38 66
e 38 67
e 38 70
e 38 73
e 39 40
e 39 42
e 39 45
e 39 46
e 39 47
e 39 48
e 39 50
e 39 51
e 39 56
e 39 57
e 39 58
e 39 59
e 39 61
e 39 63
e 39 69
e 39 71
e 39 72
e 40 41
e 40 42
e 40 43
e 40 44
e 40 48
e 40 49
e 40 50
e 40 51
e 40 52
e 40 53
e 40 54
e 40 57
e 40 58
e 40 59
e 40 60
e 40 61
e 40 63
e 40 64
e 40 65
e 40 68
e 40 69
e 40 70
e 40 71
e 40 73
e 41 42
e 41 43
e 41 44
e 41 45
e 41 46
e 41 47
e 41 48
e 41 52
e 41 54
e 41 58
e 41 60
e 41 62
e 41 63
e 41 64
e 41 65
e 41 66
e 42 43
e 42 46
e 42 48
e 42 50
e 42 51
e 42 54
e 42 56
e 42 58
e 42 65
e 42 66
e 42 68
e 42 69
e 42 70
e 42 71
e 43 47
e 43 49
e 43 50
e 43 51
e 43 53
e 43 54
e 43 55
e 43 56
e 43 57
e 43 59
e 43 61
e 43 63
e 43 65
e 43 69
e 43 70
e 43 72
e 43 73
e 44 46
e 44 50
e 44 52
e 44 55
e 44 56
e 44 58
e 44 59
e 44 61
e 44 62
e 44 64
e 44 65
e 44 66
e 44 67
e 44 69
e 44 70
e 44 71
e 44 72
e 45 47
e 45 48
e 45 50
e 45 51
e 45 52
e 45 55
e 45 56
e 45 58
e 45 61
e 45 65
e 45 67
e 45 69
e 45 71
e 45 73
e 46 48
e 46 49
e 46 50
e 46 51
e 46 53
e 46 54
e 46 56
e 46 57
e 46 61
e 46 62
e 46 65
e 46 69
e 46 71
e 46 72
e 46 73
e 47 48
e 47 49
e 47 50
e 47 51
e 47 52
e 47 54
e 47 56
e 47 57
e 47 58
e 47 60
e 47 61
e 47 62
e 47 63
e 47 65
e 47 66
e 47 67
e 47 68
e 47 69
e 47 71
e 47 72
e 48 50
e 48 51
e 48 52
e 48 54
e 48 55
e 48 56
e 48 57
e 48 61
e 48 65
e 48 66
e 48 67
e 48 68
e 48 70
e 48 72
e 48 73
e 49 55
e 49 56
e 49 57
e 49 58
e 49 59
e 49 60
e 49 61
e 49 64
e 49 65
e 49 66
e 49 67
e 49 68
e 49 70
e 49 71
e 49 72
e 50 52
e 50 53
e 50 54
e 50 56
e 50 58
e 50 59
e 50 60
e 50 61
e 50 64
e 50 65
e 50 66
e 50 67
e 50 68
e 50 70
e 50 73
e 51 52
e 51 53
e 51 54
e 51 55
e 51 56
e 51 58
e 51 59
e 51 61
e 51 62
e 51 63
e 51 64
e 51 67
e 51 68
e 51 69
e 51 71
e 51 72
e 52 53
e 52 54
e 52 55
e 52 57
e 52 58
e 52 59
e 52 62
e 52 63
e 52 64
e 52 65
e 52 66
e 52 67
e 52 69
e 52 70
e 52 72
e 52 73
e 53 54
e 53 56
e 53 57
e 53 58
e 53 62
e 53 63
e 53 65
e 53 66
e 53 69
e 53 70
e 53 71
e 53 72
e 54 55
e 54 59
e 54 60
e 54 64
e 54 65
e 54 66
e 54 67
e 54 69
e 54 73
e 55 56
e 55 57
e 55 58
e 55 60
e 55 64
e 55 65
e 55 67
e 55 69
e 55 70
e 55 72
e 55 73
e 56 57
e 56 60
e 56 61
e 56 63
e 56 67
e 56 68
e 56 69
e 56 70
e 56 71
e 56 72
e 56 73
e 57 58
e 57 59
e 57 60
e 57 62
e 57 63
e 57 67
e 57 68
e 57 71
e 57 72
e 58 61
e 58 62
e 58 64
e 58 65
e 58 67
e 58 68
e 58 69
e 58 70
e 58 72
e 59 60
e 59 61
e 59 62
e 59 63
e 59 64
e 59 65
e 59 66
e 59 67
e 59 68
e 59 69
e 59 70
e 60 61
e 60 62
e 60 63
e 60 64
e 60 66
e 60 70
e 60 71
e 60 73
e 61 66
e 61 69
e 61 70
e 61 71
e 61 72
e 62 64
e 62 68
e 62 71
e 62 72
e 62 73
e 63 64
e 63 66
e 63 70
e 63 72
e 63 73
e 64 65
e 64 66
e 64 68
e 64 70
e 65 66
e 65 69
e 65 70
e 65 72
e 65 73
e 66 67
e 66 69
e 66 72
e 67 70
e 67 71
e 67 72
e 67 73
e 68 69
e 68 70
e 68 71
e 68 72
e 69 70
e 69 73
e 70 71
e 71 72
e 71 73
e 72 73
